CPXPARAM_TimeLimit                               3600
CPXPARAM_Read_DataCheck                          1
Tried aggregator 1 time.
MIP Presolve eliminated 57 rows and 24 columns.
MIP Presolve modified 36 coefficients.
Reduced MIP has 119 rows, 43 columns, and 430 nonzeros.
Reduced MIP has 18 binaries, 0 generals, 0 SOSs, and 0 indicators.
Presolve time = 0.00 sec. (0.31 ticks)
Found incumbent of value 54.000000 after 0.00 sec. (0.45 ticks)
Probing fixed 0 vars, tightened 1 bounds.
Probing time = 0.00 sec. (0.03 ticks)
Tried aggregator 1 time.
Reduced MIP has 119 rows, 43 columns, and 430 nonzeros.
Reduced MIP has 18 binaries, 0 generals, 0 SOSs, and 0 indicators.
Presolve time = 0.00 sec. (0.19 ticks)
Probing time = 0.00 sec. (0.02 ticks)
MIP emphasis: balance optimality and feasibility.
MIP search method: dynamic search.
Parallel mode: deterministic, using up to 8 threads.
Root relaxation solution time = 0.00 sec. (0.26 ticks)

        Nodes                                         Cuts/
   Node  Left     Objective  IInf  Best Integer    Best Bound    ItCnt     Gap

*     0+    0                           54.0000       29.0000            46.30%
*     0+    0                           51.0000       29.0000            43.14%
      0     0       29.0000     4       51.0000       29.0000       44   43.14%
*     0+    0                           31.0000       29.0000             6.45%
*     0+    0                           29.0000       29.0000             0.00%
      0     0        cutoff             29.0000       29.0000       51    0.00%
Elapsed time = 0.00 sec. (1.58 ticks, tree = 0.01 MB, solutions = 4)

Root node processing (before b&c):
  Real time             =    0.00 sec. (1.58 ticks)
Parallel b&c, 8 threads:
  Real time             =    0.00 sec. (0.00 ticks)
  Sync time (average)   =    0.00 sec.
  Wait time (average)   =    0.00 sec.
                          ------------
Total (root+branch&cut) =    0.00 sec. (1.58 ticks)
